2284, 0, 0, 59, 0
2285, 0, 1, 57, 3
2286, 0, 2, 74, 2
2287, 0, 3, 54, 1
2288, 1, 0, 59, 3
2289, 1, 1, 71, 2
2290, 1, 2, 91, 1
2291, 1, 3, 42, 0
2292, 2, 0, 91, 2
2293, 2, 1, 83, 0
2294, 2, 2, 64, 1
2295, 2, 3, 84, 3
2296, 3, 0, 87, 3
2297, 3, 1, 48, 1
2298, 3, 2, 42, 0
2299, 3, 3, 71, 2
